21320 100 1100 109 85 162 20 61 154 138 40 22 68 7 111 156 120 57 20 55 18 56 45 132 12 18 108 120 81 126 48 15 76 176 139 142 13 123 83 58 117 155 27 17 30 40 85 100 49 133 159 78 146 47 139 178 133 76 133 5 123 54 165 64 117 177 24 52 68 9 66 86 117 88 121 74 132 90 40 39 119 76 112 168 156 100 127 11 53 16 86 170 154 106 125 47 147 69 64 46 135 152 110 59 53 75 34 46 72 68 40 34 48 30 60 73 62 45 34 44 33 44 41 66 31 33 59 62 51 64 42 32 50 78 68 69 32 63 52 45 62 73 36 33 37 40 52 57 42 66 74 50 70 42 68 79 66 50 66 30 63 44 75 47 62 79 35 43 48 31 47 53 62 53 63 49 66 54 40 39 62 50 60 76 73 57 65 32 43 33 53 77 72 59 64 42 70 48 47 41 67 72 60
